
Gurobi 11.0.3 (mac64[x86]) logging started Tue Apr 15 17:17:22 2025

Set parameter LogFile to value "Results/SanityCheck/try_16_big.log"
Set parameter TimeLimit to value 84600
Set parameter Method to value 2
Set parameter Crossover to value 0
Set parameter BarHomogeneous to value 1
Set parameter BarConvTol to value 1e-10
Gurobi Optimizer version 11.0.3 build v11.0.3rc0 (mac64[x86] - Darwin 23.4.0 23E214)

CPU model: Intel(R) Core(TM) i7-1060NG7 CPU @ 1.20GHz
Thread count: 4 physical cores, 8 logical processors, using up to 8 threads

Optimize a model with 1496320 rows, 1917920 columns and 7073808 nonzeros
Model fingerprint: 0xa3de5c8c
Coefficient statistics:
  Matrix range     [2e-01, 1e+00]
  Objective range  [6e-05, 5e+00]
  Bounds range     [0e+00, 0e+00]
  RHS range        [1e-02, 3e+03]
Presolve removed 1211792 rows and 1390896 columns
Presolve time: 5.06s
Presolved: 284528 rows, 527120 columns, 1878608 nonzeros
Ordering time: 0.53s

Barrier statistics:
 AA' NZ     : 2.680e+05
 Factor NZ  : 5.518e+06 (roughly 80 MB of memory)
 Factor Ops : 3.559e+09 (less than 1 second per iteration)
 Threads    : 4

                  Objective                Residual
Iter       Primal          Dual         Primal    Dual     Compl     Time
   0   8.45559587e+06  1.73151100e+11  1.48e+04 6.23e+03  4.07e+07     6s
   1  -1.48246006e+07  8.75688946e+10  4.16e+03 6.87e+03  1.33e+07     6s
   2  -1.63376022e+07  7.69401215e+09  9.87e+02 6.69e+02  1.73e+06     7s
   3  -1.54830584e+07  2.06560815e+09  5.84e+01 2.69e+01  1.05e+05     7s
   4  -7.21366185e+06  2.94014823e+08  4.33e+00 3.52e+00  8.15e+03     7s
   5  -3.62586002e+06  1.10936598e+07  2.85e-01 1.05e-01  2.87e+02     7s
   6  -6.84069146e+05  1.02728017e+06  4.46e-02 2.24e-02  2.75e+01     7s
   7  -8.12228872e+02  1.42696652e+05  2.26e-03 1.67e-03  2.33e+00     8s
   8   2.75622129e+04  4.14547544e+04  1.08e-04 1.76e-05  2.07e-01     8s
   9   3.11824572e+04  3.39192749e+04  1.06e-05 6.01e-12  3.75e-02     8s
  10   3.21279061e+04  3.27466305e+04  1.61e-06 1.59e-12  7.76e-03     8s
  11   3.23624377e+04  3.25116097e+04  2.47e-07 4.09e-12  1.79e-03     9s
  12   3.24233419e+04  3.24580776e+04  3.53e-08 3.90e-11  4.12e-04     9s
  13   3.24339655e+04  3.24472837e+04  1.09e-08 5.77e-11  1.58e-04     9s
  14   3.24366132e+04  3.24424764e+04  1.22e-08 1.87e-11  6.95e-05     9s
  15   3.24374981e+04  3.24416523e+04  6.03e-09 1.16e-08  4.92e-05     9s
  16   3.24381668e+04  3.24408449e+04  2.38e-08 1.61e-10  3.17e-05     9s
  17   3.24384823e+04  3.24403197e+04  1.53e-08 7.88e-11  2.18e-05    10s
  18   3.24386639e+04  3.24399768e+04  1.14e-08 8.38e-11  1.56e-05    10s
  19   3.24388426e+04  3.24396395e+04  6.40e-09 1.62e-10  9.45e-06    10s
  20   3.24389105e+04  3.24395025e+04  4.51e-09 5.51e-10  7.02e-06    10s
  21   3.24389716e+04  3.24393849e+04  2.93e-09 3.52e-10  4.90e-06    10s
  22   3.24390212e+04  3.24392795e+04  1.68e-09 3.28e-10  3.06e-06    11s
  23   3.24390360e+04  3.24391795e+04  1.35e-09 1.16e-08  1.70e-06    11s
  24   3.24390651e+04  3.24391293e+04  6.90e-10 7.51e-09  7.60e-07    11s
  25   3.24390828e+04  3.24391057e+04  3.05e-10 1.18e-08  2.70e-07    11s
  26   3.24390945e+04  3.24390994e+04  1.13e-10 6.50e-08  5.81e-08    11s
  27   3.24390946e+04  3.24390982e+04  4.94e-09 2.12e-08  4.26e-08    12s
  28   3.24390946e+04  3.24390976e+04  9.90e-09 6.35e-09  3.63e-08    12s
  29   3.24390946e+04  3.24390976e+04  1.04e-08 2.62e-09  3.59e-08    12s
  30   3.24390946e+04  3.24390976e+04  1.12e-08 3.17e-09  3.56e-08    12s
  31   3.24390950e+04  3.24390976e+04  1.07e-07 1.78e-09  3.10e-08    13s
  32   3.24390950e+04  3.24390976e+04  1.05e-07 6.35e-10  3.02e-08    13s
  33   3.24390968e+04  3.24390975e+04  5.98e-07 2.45e-09  9.52e-09    13s
  34   3.24390968e+04  3.24390975e+04  5.59e-07 4.90e-10  8.88e-09    13s
  35   3.24390975e+04  3.24390975e+04  1.96e-09 2.08e-11  3.13e-11    14s
  36   3.24390975e+04  3.24390975e+04  6.83e-10 3.20e-11  3.13e-14    14s

Barrier solved model in 36 iterations and 13.76 seconds (10.05 work units)
Optimal objective 3.24390975e+04

